# Objective value = 56
WA1n 0
WA1p 0
WA2n 1
WA2p 0
WB1n 0
WB1p 0
WB2n 1
WB2p 0
WC1n 0
WC1p 0
WC2n 1
WC2p 0
WD1n 0
WD1p 0
WD2n 1
WD2p 0
WE1n 0
WE1p 0
WE2n 1
WE2p 0
WF1n 0
WF1p 0
WF2n 1
WF2p 0
WG1n 0
WG1p 0
WG2n 1
WG2p 0
WH1n 0
WH1p 0
WH2n 0
WH2p 1
WI1n 0
WI1p 0
WI2n 0
WI2p 1
WJ1n 0
WJ1p 0
WJ2n 0
WJ2p 1
WK1n 0
WK1p 5
WL1n 5
WL1p 0
WL2n 1
WL2p 0
WM1n 5
WM1p 0
WM2n 1
WM2p 0
WN1n 5
WN1p 0
WN2n 1
WN2p 0
WO1n 5
WO1p 0
WO2n 1
WO2p 0
WT1n 0
WT1p 1
WT2n 0
WT2p 1
5 7
a 0
b 0
c 0
d 0
e 0
f 0
g 0
h 0
i 0
j 0
k 0
l 0
m 0
n 0
o 0
p 1
q 0
r 1
s 0
t 1
u 1
v 0
w 0
x 0
y 0
z 0
aa 0
ab 0
ac 0
ad 1
ae 1
